VALUE 2000283
1 226
4 152
7 100
8 9
9 142
12 123
15 220
17 24
20 179
22 143
24 106
24 26
28 225
33 201
36 192
39 179
42 168
45 133
48 117
51 74
54 64
55 114
64 65
65 68
51 68
74 82
82 85
85 87
26 87
100 109
106 113
17 109
113 116
12 114
116 117
117 124
8 123
124 144
124 128
128 133
7 135
133 138
138 140
135 142
140 143
4 144
152 155
155 159
159 162
1 162
22 163
163 168
168 173
173 176
176 179
20 189
192 193
189 193
193 199
201 203
199 202
202 203
213 216
213 215
203 216
215 217
216 220
217 225
4 227
8 228
12 229
15 230
17 231
20 232
22 233
24 234
26 235
28 236
33 237
36 238
39 239
42 240
45 241
48 242
51 243
54 244
55 245

